44, 1844
1797, 9
1736, 81
751, 82
1883, 6
797, 1
2117, 48
1961, 4
1848, 65
1256, 75
651, 83
1821, 56
947, 3
2074, 70
1158, 61
585, 17
1170, 93
605, 74
823, 50
2429, 70
1852, 19
590, 63
2072, 52
1092, 22
2318, 89
1291, 96
661, 26
2077, 62
2374, 52
2040, 65
1237, 60
1366, 98
1629, 68
1736, 30
560, 21
2320, 69
1246, 62
2137, 17
1644, 58
2102, 25
2446, 70
2377, 78
1619, 78
1885, 68
898, 50